p cnf 86 290
3 1 0
3 2 0
-1 -2 -3 0
4 -5 -6 0
-4 5 -6 0
4 5 6 0
-4 -5 6 0
-8 5 0
-8 -7 0
-5 7 8 0
9 6 0
9 -8 0
-6 8 -9 0
-11 -4 0
-11 10 0
4 -10 11 0
-12 -1 0
-12 -11 0
1 11 12 0
-9 12 -13 0
9 -12 -13 0
-9 -12 13 0
9 12 13 0
3 -13 -14 0
-3 13 -14 0
3 13 14 0
-3 -13 14 0
-15 6 0
-15 1 0
-6 -1 15 0
16 -15 0
16 -3 0
15 3 -16 0
19 -4 0
19 -18 0
4 18 -19 0
-20 17 0
-20 -19 0
-17 19 20 0
21 -16 0
21 -20 0
16 20 -21 0
22 14 0
22 -21 0
-14 21 -22 0
-6 23 -24 0
6 -23 -24 0
-6 -23 24 0
6 23 24 0
25 24 0
25 23 0
-24 -23 -25 0
26 1 -27 0
-26 -1 -27 0
26 -1 27 0
-26 1 27 0
-28 27 0
-28 -7 0
-27 7 28 0
-29 -25 0
-29 28 0
25 -28 29 0
-30 -4 0
-30 1 0
4 -1 30 0
-31 23 -32 0
31 -23 -32 0
-31 -23 32 0
31 23 32 0
30 32 -33 0
-30 -32 -33 0
30 -32 33 0
-30 32 33 0
4 -33 -34 0
-4 33 -34 0
4 33 34 0
-4 -33 34 0
35 29 0
35 34 0
-29 -34 -35 0
-36 30 0
-36 -4 0
-30 4 36 0
37 -36 0
37 36 0
-38 11 0
-38 37 0
-11 -37 38 0
-40 6 0
-40 39 0
-6 -39 40 0
-41 38 0
-41 -40 0
-38 40 41 0
42 18 0
42 7 0
-18 -7 -42 0
-4 1 -43 0
4 -1 -43 0
-4 -1 43 0
4 1 43 0
18 -43 -44 0
-18 43 -44 0
18 43 44 0
-18 -43 44 0
-42 44 -45 0
42 -44 -45 0
-42 -44 45 0
42 44 45 0
-46 41 0
-46 -45 0
-41 45 46 0
47 -27 0
47 11 0
27 -11 -47 0
-46 47 -48 0
46 -47 -48 0
-46 -47 48 0
46 47 48 0
-35 48 -49 0
35 -48 -49 0
-35 -48 49 0
35 48 49 0
50 10 0
50 26 0
-10 -26 -50 0
51 50 0
51 36 0
-50 -36 -51 0
-52 -19 0
-52 -19 0
19 52 0
-10 -39 -53 0
10 39 -53 0
-10 39 53 0
10 -39 53 0
-55 53 0
-55 -54 0
-53 54 55 0
-56 52 0
-56 55 0
-52 -55 56 0
-57 -10 0
-57 18 0
10 -18 57 0
58 -56 0
58 57 0
56 -57 -58 0
51 -58 -59 0
-51 58 -59 0
51 58 59 0
-51 -58 59 0
60 24 0
60 -18 0
-24 18 -60 0
61 -59 0
61 60 0
59 -60 -61 0
49 -61 -62 0
-49 61 -62 0
49 61 62 0
-49 -61 62 0
-63 8 0
-63 -5 0
-8 5 63 0
64 18 0
64 -26 0
-18 26 -64 0
65 -64 0
65 -18 0
64 18 -65 0
66 -63 0
66 -65 0
63 65 -66 0
-67 62 0
-67 -66 0
-62 66 67 0
-22 -67 -68 0
22 67 -68 0
-22 67 68 0
22 -67 68 0
9 11 -70 0
-9 -11 -70 0
9 -11 70 0
-9 11 70 0
-69 70 -71 0
69 -70 -71 0
-69 -70 71 0
69 70 71 0
-5 26 -72 0
5 -26 -72 0
-5 -26 72 0
5 26 72 0
73 -72 0
73 6 0
72 -6 -73 0
-74 8 0
-74 -73 0
-8 73 74 0
-75 71 0
-75 -74 0
-71 74 75 0
-76 5 0
-76 10 0
-5 -10 76 0
77 1 0
77 -76 0
-1 76 -77 0
75 -77 -78 0
-75 77 -78 0
75 77 78 0
-75 -77 78 0
-79 64 0
-79 -19 0
-64 19 79 0
-80 79 0
-80 -23 0
-79 23 80 0
13 -39 -81 0
-13 39 -81 0
13 39 81 0
-13 -39 81 0
82 -80 0
82 81 0
80 -81 -82 0
78 82 -83 0
-78 -82 -83 0
78 -82 83 0
-78 82 83 0
50 -30 -84 0
-50 30 -84 0
50 30 84 0
-50 -30 84 0
-83 84 -85 0
83 -84 -85 0
-83 -84 85 0
83 84 85 0
-68 85 -86 0
68 -85 -86 0
-68 -85 86 0
68 85 86 0
77 56 -63 0
63 -85 -8 18 -80 0
-73 -47 44 26 -27 24 0
-36 39 0
-50 -6 30 55 0
38 -19 -47 -43 -50 0
-72 54 63 28 35 -26 0
29 85 -52 9 41 0
83 37 38 19 -71 -7 0
-35 -72 -3 -47 65 -27 0
-76 -22 0
17 -52 0
65 43 -11 45 59 63 0
-5 25 75 33 8 48 0
-74 -84 -70 -12 0
-16 61 47 0
-51 69 0
-41 0
-15 -70 52 -43 83 0
85 -79 51 -53 76 0
83 4 0
-70 52 79 -39 10 0
52 -15 76 19 -29 -8 0
61 45 -31 0
-41 2 -81 0
-62 -9 77 -71 0
-3 -64 -16 -22 0
57 72 58 0
20 31 -1 30 -50 0
43 48 24 0
-56 -81 -34 -65 8 -69 0
36 27 -64 -44 0
45 -55 9 -12 86 6 0
82 5 74 29 0
69 -27 0
-33 35 -64 12 0
-76 67 38 0
-10 24 -50 0
-25 -16 -71 0
-12 4 -58 0
-49 75 -61 -31 -21 0
-42 25 0
-18 64 -61 -16 21 0
-71 -86 47 83 -43 0
81 -11 16 51 52 0
-53 -39 0
-35 -73 45 50 -80 0
40 21 -68 54 12 0
86 0
